1 23843700
2 23843700
3 23843700
4 23843700
5 23843700
6 23843700
7 23843700
8 23843700
9 23843700
10 23843700
11 23843700
12 23843700
13 23843700
14 23843700
15 23843700
16 23843700
17 23843700
18 23843700
19 23187624
20 23187624
21 23187624
22 23187624
23 23187624
24 23187624
25 23187624
26 23187624
27 23187624
28 23187624
29 23116356
30 23116356
31 23116356
32 23116356
33 23116356
34 23116356
35 23116356
36 23116356
37 23116356
38 23116356
39 23116356
40 23116356
41 23116356
42 23116356
43 23116356
44 23116356
45 23116356
46 23116356
47 23116356
48 23116356
49 23116356
50 23116356
51 23116356
52 23116356
53 22990216
54 22990216
55 22990216
56 22990216
57 22990216
58 22990216
59 22990216
60 22990216
61 22990216
62 22990216
63 22990216
64 22990216
65 22990216
66 22990216
67 22990216
68 22879222
69 22879222
70 22879222
71 22879222
72 22879222
73 22879222
74 22879222
75 22879222
76 22879222
77 22879222
78 22879222
79 22879222
80 22879222
81 22879222
82 22879222
83 22879222
84 22879222
85 22879222
86 22879222
87 22879222
88 22879222
89 22879222
90 22879222
91 22879222
92 22879222
93 22879222
94 22879222
95 22879222
96 22879222
97 22879222
98 22879222
99 22879222
100 22879222
101 22879222
102 22879222
103 22879222
104 22879222
105 22879222
106 22879222
107 22731852
108 22731852
109 22731852
110 22731852
111 22731852
112 22731852
113 22731852
114 22731852
115 22731852
116 22731852
117 22731852
118 22731852
119 22731852
120 22731852
121 22731852
122 22731852
123 22731852
124 22731852
125 22731852
126 22731852
127 22731852
128 22731852
129 22731852
130 22731852
131 22731852
132 22731852
133 22731852
134 22731852
135 22731852
136 22731852
137 22731852
138 22731852
139 22731852
140 22731852
141 22731852
142 22731852
143 22731852
144 22731852
145 22731852
146 22663316
147 22663316
148 22663316
149 22663316
150 22663316
151 22663316
152 22663316
153 22663316
154 22663316
155 22663316
156 22663316
157 22663316
158 22663316
159 22663316
160 22663316
161 22663316
162 22663316
163 22663316
164 22663316
165 22663316
166 22663316
167 22663316
168 22663316
169 22663316
170 22663316
171 22663316
172 22663316
173 22663316
174 22663316
175 22663316
176 22663316
177 22663316
178 22663316
179 22663316
180 22663316
181 22663316
182 22663316
183 22663316
184 22663316
185 22663316
186 22663316
187 22663316
188 22663316
189 22663316
190 22663316
191 22663316
192 22663316
193 22663316
194 22663316
195 22663316
196 22663316
197 22663316
198 22663316
199 22663316
200 22663316
201 22663316
202 22663316
203 22663316
204 22663316
205 22663316
206 22663316
207 22663316
208 22663316
209 22663316
210 22663316
211 22663316
212 22663316
213 22663316
214 22663316
215 22663316
216 22663316
217 22663316
218 22663316
219 22663316
220 22663316
221 22663316
222 22663316
223 22663316
224 22663316
225 22663316
226 22663316
227 22663316
228 22663316
229 22663316
230 22663316
231 22663316
232 22663316
233 22663316
234 22663316
235 22663316
236 22663316
237 22663316
238 22663316
239 22663316
240 22663316
241 22663316
242 22663316
243 22663316
244 22663316
245 22663316
246 22663316
247 22663316
248 22663316
249 22663316
250 22663316
 
